(set-logic ALL)
(declare-const BAV1 Bool)
(get-model)
(declare-const BAV2 Bool)
(declare-const BAV3 Bool)
(declare-const BAV4 Bool)
(declare-const BAV5 Bool)
(declare-const BAV6 Bool)
(declare-const BAV7 Bool)
(declare-const BAV8 Bool)
(declare-const GEN4 Int)
(declare-const GEN3 Int)
(declare-const GEN2 Int)
(declare-const GEN1 Int)
(declare-fun a () Int)
(declare-fun b () Int)
(declare-fun c () Int)
(declare-fun f (Int) Int)
(assert (distinct (f a) (f b)))
(assert (= c (f a)))
(assert (distinct a b))
(assert (and (>= a GEN1) (>= b GEN2) (< a GEN3) (< b GEN4)))
(assert (= BAV1 (distinct (f a) (f b))))
(assert (= BAV2 (= c (f a))))
(assert (= BAV3 (distinct a b)))
(assert (= BAV4 (and (>= a GEN1) (>= b GEN2) (< a GEN3) (< b GEN4))))
(assert (= BAV5 (>= a GEN1)))
(assert (= BAV6 (>= b GEN2)))
(assert (= BAV7 (< a GEN3)))
(assert (= BAV8 (< b GEN4)))
(check-sat)
(get-model)
(block-model)
(check-sat)
(block-model)
(check-sat)